
Gurobi 6.0.4 (win64) logging started 06/18/15 16:03:12

Read LP format model from file C:\MT\repository\VRPTWMS\instances\mip\freight\N4-C_DV10-C_SV50_F10_2_No_1.lp
Reading time = 0.00 seconds
(null): 129 rows, 72 columns, 447 nonzeros
Optimize a model with 129 rows, 72 columns and 447 nonzeros
Model has 64 quadratic constraints
Coefficient statistics:
  Matrix range    [1e+00, 1e+06]
  Objective range [4e+04, 1e+07]
  Bounds range    [1e+00, 1e+06]
  RHS range       [1e+00, 1e+06]
Presolve removed 55 rows and 29 columns
Presolve time: 0.00s
Presolved: 144 rows, 78 columns, 647 nonzeros
Variable types: 35 continuous, 43 integer (33 binary)
Found heuristic solution: objective 3.125430e+07

Root relaxation: cutoff, 0 iterations, 0.00 seconds

Explored 0 nodes (0 simplex iterations) in 0.01 seconds
Thread count was 2 (of 4 available processors)

Optimal solution found (tolerance 1.00e-04)
Best objective 3.125430000000e+07, best bound 3.125430000000e+07, gap 0.0%
k_c1	20000.0
k_c2	100000.0
k_c3	100000.0
k_c4	90000.0
k_dN	-0.0
o_1	-0.0
o_2	-0.0
o_3	-0.0
o_4	-0.0
p_1	-0.0
p_2	-0.0
p_3	-0.0
p_4	-0.0
phi_c1	13393.0
phi_c2	84834.0
phi_c3	89965.0
phi_c4	12851.0
phi_d0	100000.0
phi_dN	-0.0
tauD_c1	850000.0
tauD_c2	123700.0
tauD_c3	100000.0
tauD_c4	114850.0
tauD_d0	-0.0
tauD_dN	1000000.0
tauS_c1	869950.0
tauS_c2	863325.0
tauS_c3	39450.0
tauS_c4	871975.0
tauS_d0	-0.0
tauS_dN	484200.0
x_c1_dN	1.0
x_c2_c1	1.0
x_c3_dN	1.0
x_c4_dN	1.0
x_d0_c2	1.0
x_d0_c3	1.0
x_d0_c4	1.0
